sat
(
  (define-fun C3_VM9 () Int
    0)
  (define-fun C1_VM8 () Int
    0)
  (define-fun C1_VM12 () Int
    0)
  (define-fun C3_VM4 () Int
    0)
  (define-fun StorageProv11 () Int
    4000)
  (define-fun C4_VM10 () Int
    0)
  (define-fun VM8Type () Int
    341)
  (define-fun ProcProv3 () Int
    4)
  (define-fun C2_VM9 () Int
    1)
  (define-fun C1_VM9 () Int
    1)
  (define-fun PriceProv8 () Int
    210)
  (define-fun C5_VM8 () Int
    0)
  (define-fun MemProv10 () Int
    15000)
  (define-fun C2_VM7 () Int
    1)
  (define-fun StorageProv4 () Int
    2000)
  (define-fun C4_VM9 () Int
    0)
  (define-fun C3_VM8 () Int
    0)
  (define-fun ProcProv6 () Int
    8)
  (define-fun StorageProv12 () Int
    2000)
  (define-fun C2_VM5 () Int
    0)
  (define-fun C1_VM4 () Int
    1)
  (define-fun PriceProv11 () Int
    350)
  (define-fun C1_VM1 () Int
    1)
  (define-fun VM5Type () Int
    341)
  (define-fun C4_VM3 () Int
    0)
  (define-fun PriceProv7 () Int
    350)
  (define-fun C4_VM8 () Int
    1)
  (define-fun C5_VM10 () Int
    0)
  (define-fun C5_VM11 () Int
    0)
  (define-fun C5_VM12 () Int
    0)
  (define-fun VM1Type () Int
    316)
  (define-fun C5_VM3 () Int
    0)
  (define-fun MemProv12 () Int
    7500)
  (define-fun C2_VM3 () Int
    1)
  (define-fun PriceProv4 () Int
    420)
  (define-fun StorageProv8 () Int
    2000)
  (define-fun ProcProv2 () Int
    4)
  (define-fun PriceProv3 () Int
    350)
  (define-fun C2_VM12 () Int
    0)
  (define-fun StorageProv2 () Int
    4000)
  (define-fun StorageProv1 () Int
    4000)
  (define-fun StorageProv10 () Int
    4000)
  (define-fun C4_VM7 () Int
    0)
  (define-fun C5_VM9 () Int
    0)
  (define-fun PriceProv2 () Int
    350)
  (define-fun ProcProv5 () Int
    4)
  (define-fun C1_VM5 () Int
    0)
  (define-fun VM2Type () Int
    316)
  (define-fun MemProv3 () Int
    15000)
  (define-fun C4_VM4 () Int
    0)
  (define-fun ProcProv8 () Int
    4)
  (define-fun VM3Type () Int
    316)
  (define-fun StorageProv6 () Int
    2000)
  (define-fun C5_VM5 () Int
    0)
  (define-fun PriceProv6 () Int
    420)
  (define-fun PriceProv5 () Int
    210)
  (define-fun PriceProv12 () Int
    210)
  (define-fun C3_VM10 () Int
    0)
  (define-fun C2_VM10 () Int
    1)
  (define-fun C1_VM7 () Int
    1)
  (define-fun StorageProv7 () Int
    4000)
  (define-fun C2_VM11 () Int
    1)
  (define-fun C1_VM11 () Int
    1)
  (define-fun C3_VM2 () Int
    0)
  (define-fun C3_VM1 () Int
    0)
  (define-fun C3_VM3 () Int
    0)
  (define-fun PriceProv9 () Int
    350)
  (define-fun VM6Type () Int
    278)
  (define-fun VM4Type () Int
    278)
  (define-fun MemProv7 () Int
    15000)
  (define-fun C3_VM12 () Int
    0)
  (define-fun ProcProv10 () Int
    4)
  (define-fun C4_VM1 () Int
    0)
  (define-fun ProcProv11 () Int
    4)
  (define-fun C2_VM4 () Int
    0)
  (define-fun C5_VM2 () Int
    0)
  (define-fun StorageProv5 () Int
    2000)
  (define-fun VM12Type () Int
    341)
  (define-fun MemProv5 () Int
    7500)
  (define-fun ProcProv7 () Int
    4)
  (define-fun C5_VM6 () Int
    1)
  (define-fun MemProv4 () Int
    15000)
  (define-fun C2_VM8 () Int
    0)
  (define-fun C4_VM11 () Int
    0)
  (define-fun C5_VM1 () Int
    0)
  (define-fun PriceProv1 () Int
    350)
  (define-fun MemProv2 () Int
    15000)
  (define-fun ProcProv1 () Int
    4)
  (define-fun C1_VM10 () Int
    1)
  (define-fun C1_VM2 () Int
    1)
  (define-fun MemProv6 () Int
    15000)
  (define-fun C4_VM2 () Int
    0)
  (define-fun C3_VM11 () Int
    0)
  (define-fun ProcProv9 () Int
    4)
  (define-fun C3_VM6 () Int
    0)
  (define-fun C2_VM1 () Int
    1)
  (define-fun MemProv9 () Int
    15000)
  (define-fun MemProv8 () Int
    7500)
  (define-fun VM11Type () Int
    316)
  (define-fun C4_VM5 () Int
    1)
  (define-fun C3_VM5 () Int
    0)
  (define-fun C4_VM12 () Int
    1)
  (define-fun VM9Type () Int
    316)
  (define-fun ProcProv4 () Int
    8)
  (define-fun StorageProv9 () Int
    4000)
  (define-fun MemProv1 () Int
    15000)
  (define-fun VM10Type () Int
    316)
  (define-fun C2_VM2 () Int
    1)
  (define-fun C5_VM4 () Int
    1)
  (define-fun PriceProv10 () Int
    350)
  (define-fun C1_VM3 () Int
    1)
  (define-fun StorageProv3 () Int
    4000)
  (define-fun MemProv11 () Int
    15000)
  (define-fun C1_VM6 () Int
    1)
  (define-fun VM7Type () Int
    316)
  (define-fun C2_VM6 () Int
    0)
  (define-fun C3_VM7 () Int
    0)
  (define-fun ProcProv12 () Int
    4)
  (define-fun C5_VM7 () Int
    0)
  (define-fun C4_VM6 () Int
    0)
)
(objectives
 ( 5943)
 ((+ 0
   PriceProv1
   PriceProv2
   PriceProv3
   PriceProv4
   PriceProv5
   PriceProv6
   PriceProv7
   PriceProv8
   PriceProv9
   PriceProv10
   PriceProv11
   PriceProv12) 3920)
)
(:added-eqs                   33847214
 :arith-eq-adapter            159752460
 :arith-bound-propagations-lp 5279649
 :arith-conflicts             784
 :arith-diseq                 192498212
 :arith-fixed-eqs             492108
 :arith-lower                 215101560
 :arith-make-feasible         17514751
 :arith-max-columns           639
 :arith-max-rows              38
 :arith-upper                 186152128
 :binary-propagations         469160086
 :bv-bit2core                 3240910
 :bv-dynamic-diseqs           214364564
 :bv->core-eq                 2484
 :conflicts                   236517
 :decisions                   92339964
 :del-clause                  276030113
 :final-checks                11794
 :max-memory                  973.52
 :maxsat-cores                5869
 :memory                      941.10
 :minimized-lits              7257849
 :mk-bool-var                 113727642
 :mk-clause                   276036829
 :mk-clause-binary            47592
 :num-allocs                  937643419310120.00
 :num-checks                  20032
 :pb-conflicts                16603
 :pb-predicates               7
 :pb-propagations             572827
 :pb-resolves                 774
 :propagations                991790132
 :restarts                    920
 :rlimit-count                2411220942
 :time                        1579.61
 :total-time                  1354.85)
